Normalized Data/p01_1050_tsplib0_normalized_split0.vrp
NAME:p01_1050_tsplib0_NORMALIZED_split
BEST_KNOWN: 0
COMMENT: 0
DIMENSION: 196
CAPACITY: 100
EDGE_WEIGHT_FORMAT: FUNCTION
EDGE_WEIGHT_TYPE: EXACT_2D
NODE_COORD_SECTION
1 0.00000 0.00000
2 7 12
3 7 12
4 7 12
5 7 12
6 7 12
7 19 9
8 19 9
9 22 24
10 22 24
11 22 24
12 22 24
13 22 24
14 -10 -14
15 -10 -14
16 -10 -14
17 10 -10
18 10 -10
19 10 -10
20 10 -10
21 -9 7
22 -9 7
23 -9 7
24 -9 7
25 -9 7
26 -9 7
27 -13 23
28 -13 23
29 -13 23
30 -13 23
31 -13 23
32 -13 23
33 1 22
34 1 22
35 1 22
36 1 22
37 1 22
38 22 -7
39 22 -7
40 22 -7
41 22 -7
42 22 -7
43 21 -19
44 21 -19
45 12 1
46 12 1
47 12 1
48 1 -8
49 1 -8
50 -25 -15
51 -25 -15
52 -25 -15
53 -25 -15
54 -25 -15
55 -18 2
56 -18 2
57 6 -24
58 6 -24
59 6 -24
60 6 -24
61 6 -24
62 22 1
63 22 1
64 -3 -17
65 -3 -17
66 -3 -17
67 -3 -17
68 -13 -7
69 -13 -7
70 -17 -27
71 -17 -27
72 -17 -27
73 -17 -27
74 -17 -27
75 27 18
76 27 18
77 27 18
78 32 2
79 32 2
80 32 2
81 32 2
82 12 17
83 12 17
84 12 17
85 -14 17
86 -14 17
87 -14 17
88 -22 12
89 -22 12
90 -22 12
91 -22 12
92 -22 12
93 -23 -2
94 -23 -2
95 -23 -2
96 -3 28
97 -3 28
98 -3 28
99 -3 28
100 -3 28
101 -3 28
102 0 8
103 0 8
104 13 27
105 13 27
106 28 8
107 28 8
108 28 -13
109 28 -13
110 28 -13
111 28 -13
112 7 29
113 7 29
114 7 29
115 7 29
116 7 29
117 8 6
118 8 6
119 8 6
120 16 -30
121 16 -30
122 16 -30
123 16 -30
124 16 -30
125 31 -7
126 31 -7
127 31 -7
128 31 -7
129 31 -7
130 32 23
131 32 23
132 32 23
133 32 23
134 32 23
135 33 29
136 33 29
137 33 29
138 33 29
139 33 29
140 2 -18
141 2 -18
142 15 -5
143 15 -5
144 15 -5
145 15 -5
146 15 -5
147 29 -25
148 29 -25
149 29 -25
150 29 -25
151 29 -25
152 29 -25
153 -25 -34
154 -25 -34
155 -25 -34
156 -25 -34
157 -25 -34
158 -20 -23
159 -20 -23
160 -20 -23
161 -20 -23
162 -9 -30
163 -9 -30
164 -9 -30
165 -25 24
166 -25 24
167 -25 24
168 0 -25
169 0 -25
170 0 -25
171 0 -25
172 9 -30
173 9 -30
174 9 -30
175 2 -1
176 2 -1
177 -5 -8
178 -5 -8
179 -5 -8
180 -5 -8
181 -5 -8
182 -5 -8
183 -5 15
184 -5 15
185 -5 15
186 18 -12
187 18 -12
188 18 -12
189 18 -12
190 18 -12
191 26 -3
192 26 -3
193 26 -3
194 26 -3
195 26 -3
196 26 -3
DEMAND_SECTION
1 0
2 20
3 20
4 1
5 1
6 1
7 20
8 5
9 10
10 5
11 1
12 1
13 1
14 20
15 10
16 1
17 20
18 20
19 5
20 1
21 20
22 20
23 1
24 1
25 1
26 1
27 20
28 5
29 1
30 1
31 1
32 1
33 10
34 1
35 1
36 1
37 1
38 10
39 5
40 1
41 1
42 1
43 10
44 1
45 20
46 20
47 1
48 20
49 5
50 20
51 5
52 1
53 1
54 1
55 20
56 10
57 20
58 10
59 5
60 1
61 1
62 20
63 1
64 10
65 1
66 1
67 1
68 20
69 10
70 20
71 20
72 1
73 1
74 1
75 20
76 10
77 1
78 10
79 1
80 1
81 1
82 20
83 10
84 5
85 20
86 10
87 5
88 20
89 10
90 1
91 1
92 1
93 20
94 20
95 1
96 20
97 10
98 5
99 1
100 1
101 1
102 10
103 1
104 20
105 20
106 10
107 5
108 10
109 1
110 1
111 1
112 20
113 20
114 1
115 1
116 1
117 20
118 20
119 1
120 20
121 20
122 1
123 1
124 1
125 10
126 5
127 1
128 1
129 1
130 20
131 20
132 1
133 1
134 1
135 20
136 5
137 1
138 1
139 1
140 20
141 20
142 20
143 5
144 1
145 1
146 1
147 20
148 5
149 1
150 1
151 1
152 1
153 20
154 20
155 1
156 1
157 1
158 10
159 5
160 1
161 1
162 10
163 1
164 1
165 20
166 10
167 5
168 20
169 10
170 5
171 1
172 20
173 20
174 5
175 20
176 1
177 20
178 5
179 1
180 1
181 1
182 1
183 20
184 5
185 1
186 20
187 20
188 1
189 1
190 1
191 20
192 10
193 1
194 1
195 1
196 1
DEPOT_SECTION
1
-1
EOF