Normalized Data/p01_1050_tsplib0_normalized_split0.sol
195 -6 7 74 76 106 105 79 77 78 80 126 124 125 128 127 145 143 -11 10 8 9 12 136 138 134 135 137 130 129 133 131 132 75 -16 17 139 140 47 -18 19 119 120 123 121 122 173 172 171 -25 23 24 20 22 21 89 87 90 91 88 54 -27 26 31 29 30 28 164 166 165 85 84 86 -36 32 33 111 115 114 112 113 103 104 83 -43 42 150 146 147 148 151 149 110 109 107 108 189 188 185 187 186 -46 45 44 174 175 -48 59 57 60 58 56 169 170 167 168 63 65 64 66 -55 93 92 94 51 53 49 52 50 159 158 160 157 -61 62 191 193 192 194 195 190 38 40 37 41 39 141 144 142 -67 68 13 14 15 177 179 176 178 180 181 -70 73 71 69 72 156 155 152 154 153 163 162 161 -82 81 34 35 97 99 100 98 96 95 182 184 183 -102 101 3 5 4 1 2 117 118 116 0 





OBJ=
1023.062
BEST_KNOWN=
0.000